n = 37;
edge = 
[| 1, 2
| 1, 4
| 1, 11
| 1, 13
| 2, 3
| 2, 10
| 2, 12
| 3, 6
| 3, 11
| 3, 15
| 4, 5
| 4, 10
| 4, 14
| 5, 8
| 5, 13
| 5, 17
| 6, 7
| 6, 12
| 6, 16
| 7, 9
| 7, 15
| 7, 18
| 8, 9
| 8, 14
| 8, 18
| 9, 16
| 9, 17
| 10, 20
| 10, 22
| 11, 19
| 11, 21
| 12, 20
| 12, 24
| 13, 19
| 13, 23
| 14, 22
| 14, 26
| 15, 21
| 15, 25
| 16, 24
| 16, 27
| 17, 23
| 17, 27
| 18, 25
| 18, 26
| 19, 29
| 19, 31
| 20, 28
| 20, 30
| 21, 29
| 21, 33
| 22, 28
| 22, 32
| 23, 31
| 23, 35
| 24, 30
| 24, 34
| 25, 33
| 25, 36
| 26, 32
| 26, 36
| 27, 34
| 27, 35
| 28, 37
| 29, 37
| 30, 37
| 31, 37
| 32, 37
| 33, 37
| 34, 37
| 35, 37
| 36, 37
|];
